p cnf 175 2464
1 2 3 4 5 0
6 7 8 9 10 0
11 12 13 14 15 0
16 17 18 19 20 0
21 22 23 24 25 0
26 27 28 29 30 0
31 32 33 34 35 0
36 37 38 39 40 0
41 42 43 44 45 0
46 47 48 49 50 0
51 52 53 54 55 0
56 57 58 59 60 0
61 62 63 64 65 0
66 67 68 69 70 0
71 72 73 74 75 0
76 77 78 79 80 0
81 82 83 84 85 0
86 87 88 89 90 0
91 92 93 94 95 0
96 97 98 99 100 0
101 102 103 104 105 0
106 107 108 109 110 0
111 112 113 114 115 0
116 117 118 119 120 0
121 122 123 124 125 0
126 127 128 129 130 0
131 132 133 134 135 0
136 137 138 139 140 0
141 142 143 144 145 0
146 147 148 149 150 0
151 152 153 154 155 0
156 157 158 159 160 0
161 162 163 164 165 0
166 167 168 169 170 0
171 172 173 174 175 0
-1 -2 0
-1 -3 0
-1 -4 0
-1 -5 0
-2 -3 0
-2 -4 0
-2 -5 0
-3 -4 0
-3 -5 0
-4 -5 0
-6 -7 0
-6 -8 0
-6 -9 0
-6 -10 0
-7 -8 0
-7 -9 0
-7 -10 0
-8 -9 0
-8 -10 0
-9 -10 0
-11 -12 0
-11 -13 0
-11 -14 0
-11 -15 0
-12 -13 0
-12 -14 0
-12 -15 0
-13 -14 0
-13 -15 0
-14 -15 0
-16 -17 0
-16 -18 0
-16 -19 0
-16 -20 0
-17 -18 0
-17 -19 0
-17 -20 0
-18 -19 0
-18 -20 0
-19 -20 0
-21 -22 0
-21 -23 0
-21 -24 0
-21 -25 0
-22 -23 0
-22 -24 0
-22 -25 0
-23 -24 0
-23 -25 0
-24 -25 0
-26 -27 0
-26 -28 0
-26 -29 0
-26 -30 0
-27 -28 0
-27 -29 0
-27 -30 0
-28 -29 0
-28 -30 0
-29 -30 0
-31 -32 0
-31 -33 0
-31 -34 0
-31 -35 0
-32 -33 0
-32 -34 0
-32 -35 0
-33 -34 0
-33 -35 0
-34 -35 0
-36 -37 0
-36 -38 0
-36 -39 0
-36 -40 0
-37 -38 0
-37 -39 0
-37 -40 0
-38 -39 0
-38 -40 0
-39 -40 0
-41 -42 0
-41 -43 0
-41 -44 0
-41 -45 0
-42 -43 0
-42 -44 0
-42 -45 0
-43 -44 0
-43 -45 0
-44 -45 0
-46 -47 0
-46 -48 0
-46 -49 0
-46 -50 0
-47 -48 0
-47 -49 0
-47 -50 0
-48 -49 0
-48 -50 0
-49 -50 0
-51 -52 0
-51 -53 0
-51 -54 0
-51 -55 0
-52 -53 0
-52 -54 0
-52 -55 0
-53 -54 0
-53 -55 0
-54 -55 0
-56 -57 0
-56 -58 0
-56 -59 0
-56 -60 0
-57 -58 0
-57 -59 0
-57 -60 0
-58 -59 0
-58 -60 0
-59 -60 0
-61 -62 0
-61 -63 0
-61 -64 0
-61 -65 0
-62 -63 0
-62 -64 0
-62 -65 0
-63 -64 0
-63 -65 0
-64 -65 0
-66 -67 0
-66 -68 0
-66 -69 0
-66 -70 0
-67 -68 0
-67 -69 0
-67 -70 0
-68 -69 0
-68 -70 0
-69 -70 0
-71 -72 0
-71 -73 0
-71 -74 0
-71 -75 0
-72 -73 0
-72 -74 0
-72 -75 0
-73 -74 0
-73 -75 0
-74 -75 0
-76 -77 0
-76 -78 0
-76 -79 0
-76 -80 0
-77 -78 0
-77 -79 0
-77 -80 0
-78 -79 0
-78 -80 0
-79 -80 0
-81 -82 0
-81 -83 0
-81 -84 0
-81 -85 0
-82 -83 0
-82 -84 0
-82 -85 0
-83 -84 0
-83 -85 0
-84 -85 0
-86 -87 0
-86 -88 0
-86 -89 0
-86 -90 0
-87 -88 0
-87 -89 0
-87 -90 0
-88 -89 0
-88 -90 0
-89 -90 0
-91 -92 0
-91 -93 0
-91 -94 0
-91 -95 0
-92 -93 0
-92 -94 0
-92 -95 0
-93 -94 0
-93 -95 0
-94 -95 0
-96 -97 0
-96 -98 0
-96 -99 0
-96 -100 0
-97 -98 0
-97 -99 0
-97 -100 0
-98 -99 0
-98 -100 0
-99 -100 0
-101 -102 0
-101 -103 0
-101 -104 0
-101 -105 0
-102 -103 0
-102 -104 0
-102 -105 0
-103 -104 0
-103 -105 0
-104 -105 0
-106 -107 0
-106 -108 0
-106 -109 0
-106 -110 0
-107 -108 0
-107 -109 0
-107 -110 0
-108 -109 0
-108 -110 0
-109 -110 0
-111 -112 0
-111 -113 0
-111 -114 0
-111 -115 0
-112 -113 0
-112 -114 0
-112 -115 0
-113 -114 0
-113 -115 0
-114 -115 0
-116 -117 0
-116 -118 0
-116 -119 0
-116 -120 0
-117 -118 0
-117 -119 0
-117 -120 0
-118 -119 0
-118 -120 0
-119 -120 0
-121 -122 0
-121 -123 0
-121 -124 0
-121 -125 0
-122 -123 0
-122 -124 0
-122 -125 0
-123 -124 0
-123 -125 0
-124 -125 0
-126 -127 0
-126 -128 0
-126 -129 0
-126 -130 0
-127 -128 0
-127 -129 0
-127 -130 0
-128 -129 0
-128 -130 0
-129 -130 0
-131 -132 0
-131 -133 0
-131 -134 0
-131 -135 0
-132 -133 0
-132 -134 0
-132 -135 0
-133 -134 0
-133 -135 0
-134 -135 0
-136 -137 0
-136 -138 0
-136 -139 0
-136 -140 0
-137 -138 0
-137 -139 0
-137 -140 0
-138 -139 0
-138 -140 0
-139 -140 0
-141 -142 0
-141 -143 0
-141 -144 0
-141 -145 0
-142 -143 0
-142 -144 0
-142 -145 0
-143 -144 0
-143 -145 0
-144 -145 0
-146 -147 0
-146 -148 0
-146 -149 0
-146 -150 0
-147 -148 0
-147 -149 0
-147 -150 0
-148 -149 0
-148 -150 0
-149 -150 0
-151 -152 0
-151 -153 0
-151 -154 0
-151 -155 0
-152 -153 0
-152 -154 0
-152 -155 0
-153 -154 0
-153 -155 0
-154 -155 0
-156 -157 0
-156 -158 0
-156 -159 0
-156 -160 0
-157 -158 0
-157 -159 0
-157 -160 0
-158 -159 0
-158 -160 0
-159 -160 0
-161 -162 0
-161 -163 0
-161 -164 0
-161 -165 0
-162 -163 0
-162 -164 0
-162 -165 0
-163 -164 0
-163 -165 0
-164 -165 0
-166 -167 0
-166 -168 0
-166 -169 0
-166 -170 0
-167 -168 0
-167 -169 0
-167 -170 0
-168 -169 0
-168 -170 0
-169 -170 0
-171 -172 0
-171 -173 0
-171 -174 0
-171 -175 0
-172 -173 0
-172 -174 0
-172 -175 0
-173 -174 0
-173 -175 0
-174 -175 0
-1 -9 0
-1 -8 0
-4 -7 0
-3 -7 0
-3 -6 0
-3 -8 0
-4 -8 0
-2 -12 0
-4 -15 0
-5 -14 0
-3 -14 0
-5 -11 0
-1 -12 0
-1 -11 0
-4 -32 0
-3 -32 0
-5 -35 0
-2 -31 0
-3 -31 0
-2 -34 0
-1 -31 0
-1 -44 0
-1 -42 0
-2 -44 0
-2 -43 0
-4 -42 0
-3 -41 0
-1 -41 0
-5 -65 0
-3 -61 0
-4 -65 0
-5 -64 0
-3 -62 0
-2 -62 0
-5 -63 0
-5 -76 0
-1 -78 0
-2 -79 0
-5 -79 0
-1 -79 0
-3 -76 0
-3 -77 0
-5 -83 0
-1 -84 0
-4 -85 0
-4 -82 0
-2 -81 0
-5 -85 0
-1 -85 0
-4 -102 0
-5 -105 0
-1 -102 0
-4 -101 0
-5 -101 0
-1 -104 0
-3 -104 0
-4 -108 0
-5 -108 0
-4 -109 0
-1 -109 0
-1 -106 0
-5 -110 0
-2 -109 0
-3 -123 0
-1 -123 0
-1 -125 0
-4 -124 0
-4 -122 0
-2 -123 0
-2 -121 0
-8 -13 0
-10 -12 0
-7 -13 0
-9 -13 0
-6 -15 0
-6 -13 0
-8 -11 0
-7 -23 0
-9 -25 0
-6 -22 0
-9 -24 0
-7 -22 0
-6 -21 0
-10 -21 0
-9 -35 0
-10 -33 0
-9 -31 0
-8 -32 0
-9 -33 0
-8 -31 0
-6 -35 0
-8 -43 0
-9 -45 0
-9 -41 0
-6 -41 0
-9 -42 0
-8 -42 0
-10 -42 0
-7 -50 0
-8 -48 0
-8 -47 0
-10 -50 0
-6 -50 0
-9 -49 0
-6 -48 0
-6 -51 0
-6 -52 0
-8 -55 0
-10 -53 0
-8 -52 0
-10 -52 0
-7 -53 0
-7 -57 0
-7 -58 0
-9 -60 0
-10 -60 0
-8 -60 0
-8 -56 0
-9 -59 0
-8 -71 0
-7 -75 0
-9 -71 0
-10 -73 0
-10 -72 0
-8 -72 0
-10 -71 0
-6 -81 0
-10 -85 0
-7 -83 0
-7 -84 0
-8 -82 0
-10 -81 0
-8 -83 0
-10 -89 0
-7 -87 0
-6 -87 0
-7 -86 0
-7 -88 0
-10 -87 0
-6 -86 0
-8 -94 0
-7 -95 0
-10 -92 0
-9 -95 0
-7 -92 0
-10 -94 0
-9 -92 0
-8 -96 0
-10 -100 0
-9 -99 0
-6 -96 0
-9 -97 0
-7 -100 0
-8 -99 0
-6 -115 0
-8 -111 0
-6 -111 0
-7 -112 0
-6 -113 0
-7 -113 0
-8 -114 0
-6 -124 0
-9 -125 0
-8 -124 0
-7 -123 0
-9 -122 0
-8 -122 0
-6 -125 0
-6 -140 0
-6 -138 0
-6 -136 0
-9 -136 0
-7 -140 0
-6 -139 0
-7 -139 0
-10 -151 0
-9 -151 0
-10 -154 0
-7 -154 0
-7 -153 0
-10 -153 0
-9 -153 0
-6 -168 0
-8 -170 0
-9 -167 0
-6 -169 0
-7 -166 0
-8 -169 0
-9 -169 0
-6 -171 0
-7 -172 0
-7 -174 0
-6 -175 0
-9 -174 0
-7 -173 0
-9 -175 0
-15 -22 0
-14 -21 0
-11 -23 0
-13 -25 0
-13 -24 0
-11 -25 0
-13 -22 0
-11 -39 0
-15 -37 0
-13 -40 0
-13 -38 0
-14 -36 0
-14 -38 0
-13 -37 0
-11 -60 0
-15 -60 0
-11 -56 0
-11 -57 0
-12 -60 0
-12 -56 0
-14 -57 0
-12 -71 0
-15 -71 0
-13 -75 0
-12 -75 0
-13 -74 0
-11 -71 0
-14 -71 0
-11 -87 0
-11 -88 0
-15 -87 0
-12 -89 0
-13 -87 0
-15 -86 0
-15 -90 0
-12 -96 0
-14 -100 0
-12 -97 0
-15 -99 0
-11 -96 0
-14 -97 0
-13 -97 0
-11 -102 0
-14 -103 0
-11 -104 0
-12 -105 0
-13 -102 0
-12 -103 0
-13 -101 0
-15 -108 0
-13 -108 0
-14 -110 0
-14 -107 0
-15 -110 0
-11 -106 0
-14 -109 0
-12 -112 0
-14 -115 0
-13 -111 0
-15 -112 0
-15 -114 0
-11 -114 0
-12 -115 0
-13 -126 0
-15 -129 0
-12 -130 0
-13 -129 0
-14 -128 0
-11 -128 0
-11 -126 0
-14 -132 0
-13 -133 0
-12 -134 0
-14 -135 0
-15 -131 0
-13 -132 0
-14 -134 0
-13 -142 0
-13 -144 0
-12 -144 0
-11 -144 0
-14 -141 0
-13 -143 0
-11 -141 0
-13 -162 0
-12 -161 0
-11 -161 0
-14 -162 0
-14 -163 0
-12 -163 0
-11 -164 0
-17 -39 0
-18 -36 0
-16 -38 0
-19 -37 0
-20 -36 0
-19 -38 0
-16 -40 0
-18 -43 0
-19 -41 0
-20 -42 0
-16 -44 0
-19 -45 0
-18 -41 0
-16 -43 0
-18 -48 0
-20 -49 0
-16 -49 0
-18 -46 0
-18 -49 0
-17 -46 0
-20 -46 0
-19 -51 0
-18 -52 0
-20 -54 0
-16 -53 0
-19 -53 0
-20 -53 0
-20 -52 0
-20 -62 0
-17 -64 0
-16 -64 0
-17 -62 0
-18 -63 0
-19 -62 0
-19 -64 0
-17 -70 0
-17 -68 0
-16 -66 0
-20 -70 0
-20 -67 0
-18 -69 0
-19 -68 0
-16 -75 0
-20 -75 0
-18 -72 0
-20 -71 0
-20 -73 0
-17 -75 0
-16 -72 0
-18 -81 0
-20 -82 0
-20 -81 0
-16 -81 0
-19 -82 0
-17 -84 0
-18 -82 0
-17 -87 0
-20 -86 0
-19 -87 0
-17 -89 0
-16 -88 0
-18 -88 0
-19 -89 0
-16 -92 0
-19 -93 0
-16 -91 0
-19 -95 0
-17 -93 0
-18 -93 0
-17 -92 0
-20 -115 0
-20 -111 0
-19 -114 0
-19 -112 0
-20 -114 0
-16 -113 0
-17 -112 0
-18 -138 0
-18 -136 0
-20 -137 0
-19 -139 0
-19 -136 0
-19 -137 0
-17 -137 0
-20 -144 0
-20 -145 0
-16 -145 0
-17 -143 0
-17 -145 0
-19 -142 0
-16 -143 0
-18 -152 0
-16 -155 0
-17 -154 0
-16 -152 0
-17 -151 0
-18 -155 0
-16 -151 0
-17 -171 0
-20 -172 0
-19 -173 0
-16 -175 0
-19 -174 0
-16 -173 0
-17 -174 0
-21 -30 0
-22 -27 0
-21 -26 0
-24 -27 0
-22 -26 0
-25 -29 0
-23 -29 0
-21 -59 0
-21 -57 0
-25 -57 0
-23 -58 0
-23 -59 0
-21 -56 0
-23 -56 0
-21 -63 0
-22 -62 0
-22 -63 0
-23 -63 0
-21 -65 0
-25 -61 0
-25 -62 0
-24 -72 0
-21 -72 0
-25 -71 0
-24 -74 0
-21 -73 0
-22 -73 0
-24 -75 0
-21 -80 0
-25 -79 0
-22 -76 0
-24 -80 0
-21 -78 0
-25 -76 0
-25 -77 0
-24 -84 0
-25 -85 0
-23 -83 0
-23 -81 0
-24 -81 0
-21 -82 0
-22 -82 0
-25 -97 0
-21 -98 0
-21 -97 0
-22 -97 0
-22 -99 0
-24 -99 0
-25 -96 0
-23 -117 0
-24 -117 0
-21 -120 0
-25 -116 0
-21 -118 0
-25 -118 0
-22 -119 0
-25 -125 0
-21 -123 0
-22 -124 0
-24 -124 0
-23 -122 0
-21 -125 0
-22 -125 0
-24 -130 0
-25 -129 0
-23 -127 0
-25 -127 0
-24 -128 0
-24 -126 0
-24 -129 0
-23 -132 0
-22 -133 0
-25 -134 0
-22 -134 0
-25 -132 0
-23 -131 0
-24 -133 0
-24 -139 0
-21 -136 0
-21 -138 0
-23 -137 0
-23 -139 0
-24 -136 0
-25 -140 0
-24 -144 0
-21 -143 0
-24 -142 0
-23 -145 0
-22 -145 0
-21 -145 0
-23 -144 0
-23 -148 0
-22 -147 0
-21 -147 0
-21 -149 0
-24 -148 0
-22 -150 0
-24 -149 0
-21 -161 0
-24 -162 0
-23 -164 0
-24 -163 0
-22 -161 0
-21 -164 0
-23 -163 0
-24 -167 0
-21 -167 0
-25 -168 0
-22 -168 0
-23 -167 0
-24 -169 0
-23 -168 0
-24 -175 0
-25 -174 0
-25 -171 0
-21 -174 0
-21 -172 0
-23 -171 0
-24 -172 0
-26 -35 0
-28 -32 0
-26 -32 0
-30 -33 0
-30 -34 0
-28 -31 0
-27 -32 0
-30 -41 0
-30 -42 0
-29 -45 0
-28 -43 0
-26 -43 0
-29 -44 0
-27 -44 0
-30 -54 0
-30 -55 0
-26 -53 0
-27 -55 0
-28 -54 0
-30 -51 0
-26 -55 0
-30 -58 0
-27 -58 0
-29 -56 0
-28 -57 0
-29 -60 0
-26 -57 0
-27 -59 0
-27 -69 0
-27 -67 0
-30 -70 0
-26 -67 0
-29 -66 0
-26 -70 0
-28 -69 0
-30 -80 0
-28 -78 0
-26 -76 0
-26 -79 0
-30 -77 0
-27 -76 0
-29 -79 0
-26 -90 0
-30 -86 0
-26 -89 0
-26 -87 0
-29 -89 0
-27 -89 0
-29 -86 0
-29 -105 0
-28 -105 0
-28 -104 0
-26 -103 0
-30 -103 0
-29 -101 0
-26 -104 0
-29 -109 0
-29 -107 0
-28 -109 0
-26 -110 0
-27 -107 0
-29 -108 0
-30 -107 0
-27 -113 0
-28 -114 0
-26 -111 0
-30 -111 0
-29 -114 0
-29 -112 0
-26 -112 0
-30 -116 0
-28 -117 0
-29 -119 0
-28 -119 0
-28 -120 0
-27 -120 0
-27 -118 0
-26 -126 0
-29 -128 0
-29 -130 0
-30 -128 0
-30 -130 0
-30 -129 0
-27 -126 0
-29 -134 0
-30 -134 0
-27 -135 0
-28 -135 0
-28 -133 0
-28 -132 0
-30 -131 0
-29 -155 0
-30 -152 0
-26 -154 0
-26 -151 0
-30 -155 0
-26 -153 0
-28 -155 0
-28 -162 0
-29 -161 0
-26 -165 0
-29 -162 0
-30 -163 0
-27 -162 0
-26 -164 0
-35 -42 0
-33 -43 0
-31 -43 0
-34 -44 0
-34 -43 0
-31 -45 0
-33 -44 0
-31 -49 0
-34 -50 0
-33 -47 0
-35 -49 0
-34 -48 0
-34 -49 0
-31 -46 0
-31 -66 0
-31 -67 0
-35 -69 0
-34 -66 0
-35 -66 0
-34 -69 0
-35 -70 0
-35 -72 0
-34 -75 0
-32 -71 0
-31 -73 0
-33 -71 0
-31 -75 0
-35 -71 0
-33 -77 0
-32 -77 0
-34 -77 0
-34 -80 0
-31 -77 0
-35 -78 0
-35 -76 0
-31 -83 0
-35 -81 0
-35 -83 0
-31 -84 0
-34 -82 0
-34 -85 0
-35 -82 0
-35 -88 0
-31 -87 0
-32 -86 0
-34 -87 0
-33 -87 0
-32 -89 0
-34 -86 0
-31 -93 0
-34 -94 0
-34 -92 0
-31 -95 0
-31 -92 0
-34 -93 0
-32 -92 0
-31 -102 0
-31 -101 0
-32 -102 0
-34 -101 0
-34 -102 0
-31 -105 0
-35 -105 0
-31 -120 0
-31 -116 0
-35 -118 0
-35 -117 0
-33 -118 0
-33 -120 0
-35 -116 0
-32 -122 0
-35 -121 0
-33 -123 0
-32 -124 0
-31 -122 0
-31 -125 0
-35 -123 0
-34 -144 0
-31 -145 0
-35 -143 0
-34 -141 0
-32 -145 0
-31 -144 0
-32 -143 0
-32 -152 0
-35 -151 0
-31 -153 0
-33 -154 0
-35 -154 0
-34 -152 0
-33 -153 0
-34 -167 0
-33 -166 0
-33 -167 0
-31 -170 0
-33 -170 0
-35 -169 0
-32 -169 0
-31 -174 0
-31 -172 0
-35 -173 0
-33 -172 0
-34 -171 0
-33 -173 0
-32 -172 0
-40 -45 0
-36 -41 0
-39 -41 0
-38 -42 0
-37 -43 0
-39 -45 0
-38 -44 0
-40 -50 0
-39 -50 0
-37 -46 0
-40 -46 0
-40 -49 0
-37 -47 0
-39 -46 0
-37 -63 0
-37 -62 0
-36 -65 0
-38 -62 0
-40 -63 0
-39 -64 0
-40 -61 0
-37 -69 0
-39 -66 0
-40 -67 0
-36 -68 0
-36 -67 0
-40 -69 0
-36 -70 0
-36 -72 0
-36 -73 0
-36 -75 0
-38 -73 0
-38 -74 0
-39 -75 0
-39 -71 0
-40 -106 0
-37 -110 0
-40 -107 0
-39 -107 0
-38 -108 0
-40 -108 0
-36 -109 0
-36 -114 0
-39 -114 0
-39 -111 0
-40 -114 0
-36 -111 0
-36 -113 0
-39 -115 0
-39 -129 0
-39 -130 0
-37 -129 0
-37 -128 0
-36 -128 0
-36 -129 0
-38 -129 0
-38 -139 0
-36 -136 0
-36 -138 0
-38 -137 0
-37 -139 0
-39 -136 0
-38 -138 0
-36 -143 0
-39 -141 0
-37 -145 0
-40 -143 0
-40 -141 0
-36 -144 0
-40 -144 0
-38 -156 0
-36 -156 0
-36 -157 0
-36 -160 0
-39 -156 0
-38 -157 0
-39 -157 0
-40 -170 0
-40 -166 0
-40 -169 0
-36 -167 0
-38 -167 0
-37 -167 0
-37 -166 0
-43 -60 0
-43 -56 0
-43 -58 0
-45 -57 0
-41 -59 0
-44 -56 0
-42 -60 0
-44 -64 0
-44 -63 0
-43 -63 0
-42 -63 0
-42 -62 0
-45 -62 0
-41 -64 0
-43 -69 0
-44 -67 0
-45 -68 0
-41 -66 0
-43 -68 0
-44 -68 0
-41 -69 0
-45 -79 0
-44 -76 0
-42 -76 0
-43 -80 0
-43 -76 0
-41 -80 0
-41 -76 0
-41 -84 0
-45 -85 0
-45 -82 0
-45 -84 0
-44 -85 0
-44 -82 0
-41 -81 0
-45 -87 0
-42 -86 0
-43 -89 0
-45 -86 0
-41 -88 0
-43 -87 0
-44 -86 0
-42 -95 0
-42 -92 0
-45 -92 0
-41 -94 0
-44 -95 0
-45 -94 0
-44 -93 0
-45 -107 0
-41 -107 0
-45 -109 0
-45 -106 0
-41 -108 0
-44 -108 0
-41 -110 0
-41 -111 0
-42 -112 0
-41 -113 0
-44 -114 0
-44 -112 0
-41 -112 0
-43 -113 0
-45 -117 0
-41 -116 0
-43 -120 0
-42 -118 0
-45 -118 0
-45 -120 0
-42 -116 0
-43 -130 0
-45 -126 0
-41 -127 0
-44 -130 0
-43 -129 0
-42 -128 0
-42 -127 0
-43 -132 0
-44 -131 0
-43 -135 0
-44 -135 0
-44 -134 0
-43 -134 0
-42 -133 0
-41 -139 0
-43 -140 0
-45 -138 0
-42 -137 0
-44 -136 0
-44 -139 0
-45 -136 0
-44 -157 0
-44 -159 0
-45 -156 0
-41 -160 0
-45 -157 0
-45 -160 0
-41 -156 0
-45 -164 0
-44 -161 0
-41 -163 0
-45 -165 0
-45 -161 0
-42 -161 0
-43 -163 0
-43 -170 0
-45 -167 0
-41 -166 0
-42 -168 0
-43 -167 0
-41 -168 0
-45 -168 0
-45 -171 0
-45 -175 0
-42 -175 0
-45 -174 0
-41 -174 0
-44 -175 0
-41 -173 0
-50 -87 0
-46 -87 0
-50 -86 0
-48 -90 0
-50 -90 0
-49 -87 0
-46 -89 0
-48 -96 0
-46 -96 0
-49 -100 0
-47 -98 0
-50 -96 0
-49 -96 0
-48 -98 0
-48 -102 0
-47 -103 0
-48 -105 0
-50 -102 0
-49 -102 0
-47 -102 0
-50 -103 0
-50 -106 0
-49 -110 0
-47 -108 0
-47 -107 0
-48 -109 0
-47 -110 0
-50 -110 0
-48 -116 0
-46 -120 0
-47 -116 0
-50 -117 0
-50 -118 0
-46 -118 0
-49 -117 0
-49 -123 0
-50 -124 0
-48 -122 0
-46 -122 0
-47 -123 0
-46 -121 0
-46 -125 0
-49 -126 0
-47 -128 0
-48 -126 0
-48 -127 0
-48 -129 0
-50 -128 0
-47 -127 0
-50 -131 0
-49 -134 0
-50 -133 0
-50 -134 0
-47 -131 0
-46 -131 0
-47 -133 0
-48 -143 0
-49 -141 0
-47 -145 0
-48 -144 0
-50 -141 0
-46 -143 0
-46 -141 0
-47 -171 0
-50 -174 0
-47 -175 0
-47 -172 0
-46 -174 0
-50 -175 0
-48 -172 0
-52 -56 0
-51 -57 0
-55 -58 0
-54 -60 0
-52 -60 0
-54 -59 0
-51 -60 0
-54 -64 0
-52 -63 0
-51 -63 0
-53 -61 0
-55 -64 0
-51 -61 0
-53 -65 0
-52 -71 0
-54 -73 0
-52 -74 0
-52 -73 0
-52 -72 0
-55 -75 0
-55 -74 0
-53 -83 0
-51 -85 0
-54 -82 0
-51 -83 0
-54 -83 0
-52 -82 0
-53 -82 0
-54 -87 0
-53 -86 0
-52 -89 0
-51 -89 0
-53 -88 0
-51 -88 0
-54 -90 0
-53 -94 0
-52 -92 0
-52 -95 0
-52 -94 0
-55 -91 0
-54 -91 0
-55 -93 0
-51 -106 0
-53 -106 0
-54 -109 0
-51 -109 0
-52 -110 0
-51 -110 0
-55 -107 0
-54 -114 0
-52 -114 0
-52 -112 0
-53 -115 0
-51 -113 0
-55 -113 0
-53 -112 0
-51 -137 0
-51 -140 0
-53 -137 0
-54 -138 0
-52 -138 0
-54 -139 0
-51 -139 0
-54 -141 0
-55 -145 0
-54 -142 0
-54 -145 0
-53 -145 0
-51 -143 0
-52 -142 0
-52 -153 0
-55 -152 0
-51 -153 0
-51 -154 0
-53 -151 0
-54 -154 0
-55 -153 0
-55 -159 0
-52 -157 0
-51 -157 0
-51 -156 0
-54 -160 0
-55 -156 0
-53 -158 0
-53 -170 0
-51 -170 0
-54 -166 0
-55 -169 0
-54 -170 0
-53 -168 0
-54 -167 0
-58 -80 0
-56 -77 0
-59 -76 0
-56 -76 0
-57 -76 0
-59 -79 0
-58 -78 0
-59 -85 0
-58 -85 0
-57 -85 0
-60 -85 0
-60 -82 0
-58 -83 0
-58 -81 0
-56 -105 0
-60 -104 0
-60 -105 0
-57 -105 0
-59 -105 0
-58 -103 0
-56 -103 0
-57 -121 0
-58 -122 0
-60 -121 0
-59 -124 0
-56 -124 0
-58 -121 0
-60 -122 0
-60 -131 0
-60 -135 0
-58 -131 0
-59 -135 0
-56 -134 0
-58 -133 0
-60 -132 0
-58 -140 0
-57 -140 0
-56 -139 0
-59 -139 0
-59 -138 0
-58 -138 0
-60 -139 0
-59 -157 0
-56 -157 0
-60 -158 0
-59 -156 0
-56 -156 0
-60 -157 0
-58 -160 0
-60 -166 0
-56 -166 0
-58 -168 0
-57 -170 0
-57 -166 0
-58 -169 0
-60 -170 0
-64 -72 0
-63 -72 0
-64 -74 0
-65 -72 0
-63 -73 0
-65 -75 0
-61 -71 0
-62 -78 0
-63 -79 0
-63 -80 0
-64 -80 0
-64 -76 0
-61 -79 0
-62 -80 0
-65 -85 0
-65 -81 0
-62 -83 0
-65 -83 0
-64 -84 0
-62 -84 0
-64 -85 0
-61 -117 0
-63 -120 0
-62 -119 0
-62 -120 0
-65 -118 0
-61 -118 0
-63 -118 0
-61 -128 0
-61 -126 0
-65 -127 0
-61 -127 0
-65 -126 0
-65 -128 0
-63 -127 0
-65 -132 0
-62 -135 0
-61 -133 0
-62 -134 0
-65 -135 0
-65 -131 0
-64 -135 0
-65 -143 0
-61 -145 0
-65 -141 0
-65 -142 0
-64 -144 0
-64 -143 0
-65 -145 0
-61 -150 0
-63 -150 0
-61 -146 0
-63 -149 0
-65 -149 0
-65 -146 0
-64 -148 0
-61 -151 0
-62 -152 0
-65 -151 0
-64 -151 0
-64 -152 0
-63 -153 0
-65 -154 0
-62 -162 0
-61 -164 0
-64 -162 0
-62 -163 0
-61 -163 0
-65 -164 0
-65 -165 0
-62 -169 0
-65 -166 0
-63 -166 0
-63 -168 0
-63 -167 0
-65 -169 0
-64 -168 0
-64 -175 0
-63 -171 0
-63 -172 0
-61 -172 0
-64 -172 0
-62 -173 0
-63 -175 0
-67 -81 0
-66 -81 0
-68 -81 0
-68 -82 0
-69 -82 0
-67 -83 0
-68 -85 0
-70 -87 0
-69 -87 0
-66 -90 0
-67 -87 0
-66 -89 0
-67 -88 0
-67 -86 0
-67 -94 0
-66 -93 0
-67 -92 0
-68 -94 0
-68 -93 0
-68 -91 0
-67 -93 0
-66 -96 0
-67 -100 0
-69 -100 0
-66 -97 0
-69 -98 0
-68 -98 0
-67 -96 0
-69 -105 0
-68 -104 0
-67 -101 0
-68 -103 0
-70 -104 0
-66 -102 0
-67 -103 0
-70 -119 0
-66 -117 0
-68 -120 0
-68 -117 0
-70 -116 0
-66 -118 0
-69 -120 0
-70 -125 0
-69 -123 0
-68 -123 0
-70 -124 0
-66 -122 0
-67 -124 0
-69 -122 0
-67 -130 0
-70 -126 0
-68 -127 0
-67 -128 0
-69 -129 0
-68 -130 0
-66 -127 0
-67 -133 0
-70 -131 0
-68 -132 0
-68 -134 0
-66 -134 0
-69 -134 0
-67 -134 0
-67 -138 0
-70 -139 0
-68 -138 0
-69 -136 0
-68 -137 0
-68 -140 0
-68 -139 0
-66 -153 0
-69 -155 0
-68 -153 0
-70 -151 0
-68 -154 0
-67 -154 0
-69 -154 0
-71 -93 0
-74 -93 0
-75 -91 0
-72 -93 0
-71 -92 0
-75 -93 0
-74 -95 0
-72 -96 0
-75 -97 0
-72 -99 0
-74 -97 0
-74 -96 0
-72 -98 0
-74 -98 0
-74 -116 0
-75 -119 0
-72 -116 0
-73 -120 0
-71 -116 0
-75 -116 0
-74 -120 0
-71 -128 0
-73 -127 0
-74 -126 0
-73 -126 0
-73 -129 0
-72 -130 0
-71 -130 0
-71 -132 0
-74 -135 0
-72 -134 0
-74 -134 0
-74 -131 0
-72 -131 0
-75 -133 0
-73 -144 0
-72 -145 0
-72 -142 0
-73 -142 0
-75 -145 0
-74 -144 0
-71 -142 0
-72 -161 0
-75 -164 0
-72 -164 0
-75 -163 0
-74 -164 0
-74 -163 0
-75 -162 0
-75 -170 0
-72 -170 0
-72 -169 0
-73 -167 0
-75 -169 0
-73 -169 0
-73 -170 0
-73 -172 0
-74 -175 0
-75 -172 0
-74 -172 0
-74 -174 0
-73 -171 0
-74 -171 0
-79 -82 0
-78 -85 0
-79 -84 0
-80 -81 0
-79 -81 0
-80 -85 0
-78 -83 0
-78 -91 0
-77 -94 0
-77 -93 0
-76 -91 0
-78 -95 0
-79 -94 0
-77 -95 0
-76 -99 0
-80 -100 0
-77 -99 0
-77 -96 0
-79 -98 0
-78 -96 0
-80 -96 0
-78 -101 0
-77 -105 0
-80 -104 0
-80 -105 0
-76 -105 0
-76 -103 0
-78 -102 0
-77 -109 0
-78 -109 0
-79 -110 0
-80 -107 0
-77 -108 0
-79 -108 0
-80 -110 0
-76 -112 0
-80 -115 0
-79 -112 0
-78 -114 0
-78 -115 0
-77 -113 0
-78 -113 0
-78 -127 0
-80 -130 0
-80 -127 0
-77 -128 0
-78 -126 0
-79 -129 0
-76 -126 0
-78 -133 0
-80 -133 0
-77 -135 0
-77 -132 0
-78 -131 0
-76 -131 0
-78 -134 0
-77 -147 0
-76 -147 0
-78 -150 0
-76 -146 0
-80 -148 0
-79 -146 0
-79 -149 0
-80 -154 0
-79 -152 0
-78 -155 0
-80 -152 0
-78 -152 0
-80 -151 0
-77 -152 0
-76 -157 0
-78 -158 0
-77 -160 0
-78 -156 0
-80 -157 0
-77 -156 0
-80 -158 0
-77 -173 0
-79 -174 0
-79 -175 0
-76 -173 0
-77 -175 0
-76 -172 0
-76 -175 0
-85 -93 0
-81 -91 0
-83 -93 0
-84 -94 0
-83 -92 0
-84 -95 0
-84 -92 0
-81 -99 0
-82 -98 0
-84 -97 0
-81 -96 0
-85 -99 0
-81 -100 0
-83 -100 0
-83 -108 0
-82 -106 0
-85 -107 0
-83 -107 0
-85 -110 0
-82 -107 0
-85 -109 0
-85 -114 0
-81 -111 0
-83 -114 0
-81 -113 0
-85 -111 0
-83 -115 0
-81 -114 0
-81 -146 0
-82 -146 0
-83 -146 0
-82 -149 0
-82 -147 0
-81 -147 0
-83 -150 0
-85 -162 0
-84 -163 0
-85 -161 0
-85 -164 0
-81 -165 0
-84 -165 0
-82 -162 0
-82 -170 0
-85 -170 0
-85 -167 0
-83 -167 0
-83 -168 0
-82 -166 0
-84 -166 0
-81 -174 0
-81 -173 0
-85 -173 0
-82 -171 0
-85 -174 0
-84 -175 0
-84 -172 0
-90 -96 0
-86 -96 0
-89 -98 0
-86 -99 0
-88 -99 0
-88 -100 0
-86 -100 0
-90 -115 0
-88 -115 0
-88 -112 0
-86 -114 0
-88 -114 0
-89 -112 0
-89 -111 0
-88 -120 0
-89 -119 0
-88 -116 0
-87 -118 0
-89 -117 0
-86 -118 0
-87 -120 0
-88 -125 0
-87 -121 0
-86 -122 0
-86 -123 0
-90 -124 0
-89 -121 0
-89 -123 0
-88 -131 0
-87 -131 0
-87 -132 0
-86 -132 0
-87 -134 0
-86 -135 0
-88 -135 0
-87 -139 0
-87 -136 0
-88 -137 0
-86 -136 0
-87 -138 0
-89 -139 0
-90 -136 0
-89 -150 0
-87 -150 0
-86 -148 0
-88 -149 0
-90 -150 0
-90 -146 0
-86 -147 0
-89 -152 0
-86 -155 0
-88 -154 0
-86 -151 0
-88 -155 0
-87 -151 0
-86 -152 0
-87 -164 0
-90 -164 0
-88 -165 0
-87 -163 0
-89 -163 0
-89 -165 0
-86 -162 0
-88 -175 0
-89 -172 0
-87 -174 0
-86 -173 0
-90 -174 0
-89 -175 0
-88 -171 0
-95 -103 0
-91 -103 0
-91 -104 0
-93 -104 0
-94 -101 0
-94 -102 0
-95 -105 0
-91 -112 0
-91 -115 0
-94 -115 0
-93 -113 0
-94 -113 0
-95 -112 0
-91 -113 0
-92 -116 0
-93 -118 0
-94 -118 0
-94 -117 0
-93 -120 0
-92 -118 0
-93 -116 0
-94 -123 0
-91 -123 0
-94 -121 0
-94 -125 0
-94 -122 0
-93 -121 0
-93 -122 0
-95 -147 0
-93 -148 0
-95 -148 0
-94 -147 0
-91 -149 0
-93 -150 0
-94 -148 0
-93 -152 0
-92 -155 0
-91 -155 0
-92 -152 0
-91 -151 0
-93 -155 0
-94 -153 0
-93 -156 0
-92 -157 0
-91 -160 0
-91 -159 0
-94 -156 0
-94 -160 0
-91 -156 0
-92 -164 0
-91 -162 0
-93 -165 0
-95 -164 0
-91 -163 0
-91 -164 0
-94 -164 0
-95 -171 0
-91 -174 0
-94 -172 0
-95 -172 0
-92 -172 0
-92 -173 0
-92 -171 0
-96 -114 0
-99 -111 0
-98 -114 0
-100 -111 0
-97 -112 0
-96 -113 0
-96 -112 0
-96 -134 0
-97 -134 0
-100 -131 0
-98 -135 0
-96 -132 0
-100 -135 0
-96 -133 0
-99 -148 0
-97 -148 0
-97 -150 0
-98 -150 0
-96 -150 0
-100 -147 0
-98 -148 0
-99 -167 0
-100 -167 0
-99 -170 0
-98 -167 0
-100 -168 0
-96 -169 0
-98 -170 0
-100 -175 0
-100 -171 0
-96 -173 0
-98 -175 0
-99 -175 0
-97 -173 0
-96 -171 0
-101 -119 0
-102 -119 0
-104 -120 0
-102 -117 0
-101 -117 0
-103 -117 0
-102 -116 0
-102 -123 0
-103 -125 0
-105 -125 0
-103 -123 0
-103 -121 0
-102 -124 0
-103 -124 0
-104 -130 0
-105 -129 0
-102 -126 0
-104 -126 0
-103 -127 0
-104 -128 0
-102 -130 0
-103 -135 0
-101 -132 0
-101 -131 0
-105 -133 0
-103 -134 0
-102 -131 0
-105 -135 0
-104 -142 0
-101 -141 0
-102 -142 0
-102 -145 0
-102 -144 0
-102 -141 0
-104 -141 0
-102 -150 0
-105 -149 0
-105 -148 0
-102 -147 0
-104 -150 0
-103 -146 0
-101 -148 0
-103 -152 0
-105 -152 0
-104 -151 0
-102 -154 0
-102 -151 0
-101 -154 0
-101 -155 0
-102 -158 0
-104 -160 0
-105 -158 0
-102 -156 0
-105 -160 0
-104 -157 0
-103 -160 0
-109 -114 0
-109 -115 0
-108 -113 0
-108 -114 0
-108 -111 0
-107 -115 0
-110 -113 0
-110 -122 0
-108 -125 0
-107 -125 0
-107 -124 0
-110 -125 0
-109 -122 0
-106 -123 0
-106 -127 0
-109 -129 0
-106 -129 0
-107 -127 0
-110 -128 0
-107 -129 0
-108 -127 0
-107 -131 0
-108 -134 0
-110 -131 0
-108 -131 0
-107 -134 0
-107 -133 0
-109 -132 0
-107 -136 0
-106 -137 0
-109 -138 0
-108 -138 0
-106 -138 0
-110 -137 0
-108 -137 0
-106 -142 0
-107 -141 0
-109 -142 0
-106 -143 0
-107 -142 0
-106 -141 0
-106 -145 0
-108 -146 0
-109 -146 0
-107 -150 0
-106 -147 0
-110 -149 0
-108 -150 0
-108 -148 0
-109 -152 0
-106 -151 0
-109 -153 0
-106 -153 0
-110 -153 0
-109 -155 0
-110 -154 0
-109 -161 0
-110 -162 0
-108 -163 0
-106 -162 0
-110 -163 0
-109 -165 0
-106 -161 0
-107 -167 0
-106 -170 0
-108 -167 0
-106 -167 0
-108 -169 0
-108 -166 0
-109 -168 0
-115 -118 0
-112 -116 0
-113 -116 0
-115 -120 0
-112 -119 0
-115 -119 0
-112 -118 0
-115 -123 0
-113 -122 0
-113 -123 0
-111 -122 0
-112 -124 0
-114 -121 0
-114 -124 0
-115 -128 0
-113 -127 0
-114 -127 0
-111 -129 0
-114 -130 0
-111 -130 0
-112 -126 0
-113 -132 0
-111 -131 0
-115 -135 0
-111 -134 0
-114 -135 0
-112 -134 0
-113 -131 0
-112 -136 0
-113 -139 0
-112 -137 0
-115 -138 0
-115 -136 0
-113 -137 0
-112 -140 0
-112 -143 0
-111 -143 0
-111 -142 0
-111 -145 0
-115 -143 0
-113 -145 0
-113 -143 0
-111 -162 0
-114 -165 0
-111 -161 0
-115 -163 0
-112 -163 0
-111 -165 0
-115 -164 0
-115 -167 0
-113 -166 0
-114 -166 0
-114 -169 0
-114 -168 0
-111 -169 0
-112 -170 0
-115 -173 0
-111 -174 0
-115 -174 0
-113 -171 0
-112 -172 0
-113 -175 0
-111 -172 0
-118 -127 0
-118 -130 0
-116 -129 0
-118 -126 0
-119 -127 0
-116 -128 0
-120 -127 0
-116 -153 0
-116 -155 0
-119 -155 0
-118 -153 0
-118 -155 0
-116 -152 0
-119 -154 0
-118 -160 0
-119 -157 0
-117 -158 0
-120 -159 0
-119 -159 0
-118 -159 0
-119 -156 0
-117 -167 0
-119 -166 0
-120 -166 0
-117 -166 0
-120 -169 0
-117 -168 0
-117 -170 0
-122 -134 0
-124 -133 0
-124 -134 0
-123 -135 0
-121 -134 0
-125 -131 0
-123 -131 0
-122 -155 0
-124 -153 0
-122 -151 0
-125 -152 0
-124 -152 0
-122 -153 0
-121 -153 0
-127 -133 0
-128 -131 0
-129 -131 0
-129 -135 0
-128 -134 0
-128 -132 0
-130 -132 0
-129 -142 0
-127 -141 0
-128 -143 0
-128 -145 0
-129 -141 0
-126 -145 0
-129 -143 0
-133 -137 0
-134 -139 0
-133 -138 0
-132 -137 0
-131 -136 0
-131 -138 0
-131 -139 0
-132 -145 0
-133 -144 0
-133 -142 0
-134 -144 0
-135 -141 0
-132 -144 0
-134 -145 0
-132 -154 0
-131 -151 0
-131 -154 0
-133 -151 0
-132 -152 0
-131 -152 0
-135 -152 0
-134 -156 0
-135 -158 0
-131 -160 0
-131 -156 0
-133 -156 0
-132 -159 0
-132 -157 0
-139 -141 0
-136 -142 0
-140 -141 0
-137 -145 0
-137 -143 0
-136 -144 0
-138 -145 0
-137 -148 0
-137 -149 0
-136 -146 0
-139 -149 0
-136 -149 0
-139 -148 0
-136 -150 0
-139 -154 0
-137 -151 0
-140 -152 0
-139 -152 0
-137 -154 0
-138 -154 0
-137 -152 0
-139 -156 0
-138 -156 0
-137 -160 0
-140 -158 0
-136 -156 0
-139 -157 0
-138 -158 0
-138 -166 0
-137 -167 0
-139 -168 0
-138 -168 0
-140 -170 0
-138 -169 0
-140 -169 0
-139 -171 0
-140 -173 0
-137 -173 0
-137 -174 0
-140 -175 0
-140 -172 0
-136 -175 0
-142 -152 0
-141 -152 0
-141 -155 0
-143 -155 0
-143 -153 0
-143 -151 0
-145 -154 0
-142 -170 0
-141 -168 0
-143 -170 0
-142 -166 0
-141 -169 0
-145 -169 0
-141 -170 0
-141 -175 0
-143 -172 0
-141 -172 0
-141 -174 0
-142 -175 0
-145 -173 0
-142 -171 0
-147 -151 0
-148 -151 0
-146 -155 0
-149 -154 0
-149 -151 0
-148 -153 0
-146 -153 0
-147 -159 0
-146 -158 0
-148 -156 0
-150 -159 0
-147 -158 0
-147 -160 0
-146 -159 0
-146 -165 0
-147 -164 0
-149 -162 0
-150 -164 0
-150 -165 0
-150 -163 0
-148 -165 0
-149 -167 0
-147 -170 0
-150 -168 0
-149 -168 0
-146 -167 0
-150 -170 0
-147 -167 0
-149 -172 0
-150 -174 0
-146 -172 0
-149 -175 0
-147 -171 0
-150 -173 0
-147 -174 0
-155 -162 0
-154 -162 0
-152 -162 0
-155 -161 0
-155 -165 0
-152 -161 0
-151 -164 0
-154 -173 0
-154 -171 0
-153 -174 0
-155 -172 0
-153 -171 0
-153 -173 0
-155 -174 0
-157 -172 0
-156 -173 0
-160 -175 0
-158 -175 0
-159 -171 0
-159 -174 0
-157 -174 0
-165 -168 0
-163 -168 0
-164 -166 0
-162 -170 0
-162 -169 0
-161 -168 0
-161 -166 0
-165 -172 0
-164 -171 0
-161 -174 0
-163 -172 0
-162 -171 0
-163 -173 0
-161 -175 0
